\ LP format - for model browsing. Use MPS format to capture full model detail.
Maximize
  f_0 + f_1 + f_2 + f_3 + f_4 + f_5 + f_6 + f_7 + f_8 + f_9 + f_10 + f_11
   + f_12 + f_13 + f_14 + f_15 + f_16 + f_17 + f_18 + f_19 + f_20 + f_21
   + f_22 + f_23 + f_24 + f_25 + f_26 + f_27 + f_28 + f_29 + f_30 + f_31
Subject To
 preserve_0: f_0 - g_0 + e_0_19 + e_0_12 + e_0_21 + e_0_17 + e_0_30
   + e_0_22 + e_0_8 + e_0_28 - e_8_0 - e_12_0 - e_17_0 - e_19_0 - e_21_0
   - e_22_0 - e_28_0 - e_30_0 = 0
 disjoint_0: c_0 + s_0 <= 1
 inrack_0: - 24 c_0 + f_0 <= 0
 outrack_0: - 24 s_0 + g_0 <= 0
 preserve_1: f_1 - g_1 + e_1_24 + e_1_4 + e_1_19 + e_1_18 + e_1_5 + e_1_29
   + e_1_6 + e_1_20 - e_4_1 - e_5_1 - e_6_1 - e_18_1 - e_19_1 - e_20_1
   - e_24_1 - e_29_1 = 0
 disjoint_1: c_1 + s_1 <= 1
 inrack_1: - 24 c_1 + f_1 <= 0
 outrack_1: - 24 s_1 + g_1 <= 0
 preserve_2: f_2 - g_2 + e_2_19 + e_2_28 + e_2_23 + e_2_9 + e_2_5 + e_2_4
   + e_2_12 + e_2_27 - e_4_2 - e_5_2 - e_9_2 - e_12_2 - e_19_2 - e_23_2
   - e_27_2 - e_28_2 = 0
 disjoint_2: c_2 + s_2 <= 1
 inrack_2: - 24 c_2 + f_2 <= 0
 outrack_2: - 24 s_2 + g_2 <= 0
 preserve_3: f_3 - g_3 + e_3_17 + e_3_29 + e_3_7 + e_3_26 + e_3_25 + e_3_13
   + e_3_20 + e_3_8 - e_7_3 - e_8_3 - e_13_3 - e_17_3 - e_20_3 - e_25_3
   - e_26_3 - e_29_3 = 0
 disjoint_3: c_3 + s_3 <= 1
 inrack_3: - 24 c_3 + f_3 <= 0
 outrack_3: - 24 s_3 + g_3 <= 0
 preserve_4: f_4 - g_4 - e_1_4 - e_2_4 + e_4_1 + e_4_2 + e_4_24 + e_4_21
   + e_4_7 + e_4_29 + e_4_20 + e_4_10 - e_7_4 - e_10_4 - e_20_4 - e_21_4
   - e_24_4 - e_29_4 = 0
 disjoint_4: c_4 + s_4 <= 1
 inrack_4: - 24 c_4 + f_4 <= 0
 outrack_4: - 24 s_4 + g_4 <= 0
 preserve_5: f_5 - g_5 - e_1_5 - e_2_5 + e_5_1 + e_5_2 + e_5_9 + e_5_7
   + e_5_19 + e_5_25 + e_5_27 + e_5_16 - e_7_5 - e_9_5 - e_16_5 - e_19_5
   - e_25_5 - e_27_5 = 0
 disjoint_5: c_5 + s_5 <= 1
 inrack_5: - 24 c_5 + f_5 <= 0
 outrack_5: - 24 s_5 + g_5 <= 0
 preserve_6: f_6 - g_6 - e_1_6 + e_6_1 + e_6_23 + e_6_26 + e_6_21 + e_6_15
   + e_6_28 + e_6_11 + e_6_18 - e_11_6 - e_15_6 - e_18_6 - e_21_6 - e_23_6
   - e_26_6 - e_28_6 = 0
 disjoint_6: c_6 + s_6 <= 1
 inrack_6: - 24 c_6 + f_6 <= 0
 outrack_6: - 24 s_6 + g_6 <= 0
 preserve_7: f_7 - g_7 - e_3_7 - e_4_7 - e_5_7 + e_7_3 + e_7_4 + e_7_5
   + e_7_21 + e_7_13 + e_7_10 + e_7_25 + e_7_30 - e_10_7 - e_13_7 - e_21_7
   - e_25_7 - e_30_7 = 0
 disjoint_7: c_7 + s_7 <= 1
 inrack_7: - 24 c_7 + f_7 <= 0
 outrack_7: - 24 s_7 + g_7 <= 0
 preserve_8: f_8 - g_8 - e_0_8 - e_3_8 + e_8_0 + e_8_3 + e_8_30 + e_8_11
   + e_8_14 + e_8_31 + e_8_19 + e_8_13 - e_11_8 - e_13_8 - e_14_8 - e_19_8
   - e_30_8 - e_31_8 = 0
 disjoint_8: c_8 + s_8 <= 1
 inrack_8: - 24 c_8 + f_8 <= 0
 outrack_8: - 24 s_8 + g_8 <= 0
 preserve_9: f_9 - g_9 - e_2_9 - e_5_9 + e_9_2 + e_9_5 + e_9_14 + e_9_15
   + e_9_31 + e_9_27 + e_9_29 + e_9_30 - e_14_9 - e_15_9 - e_27_9 - e_29_9
   - e_30_9 - e_31_9 = 0
 disjoint_9: c_9 + s_9 <= 1
 inrack_9: - 24 c_9 + f_9 <= 0
 outrack_9: - 24 s_9 + g_9 <= 0
 preserve_10: f_10 - g_10 - e_4_10 - e_7_10 + e_10_4 + e_10_7 + e_10_29
   + e_10_28 + e_10_22 + e_10_31 + e_10_12 + e_10_20 - e_12_10 - e_20_10
   - e_22_10 - e_28_10 - e_29_10 - e_31_10 = 0
 disjoint_10: c_10 + s_10 <= 1
 inrack_10: - 24 c_10 + f_10 <= 0
 outrack_10: - 24 s_10 + g_10 <= 0
 preserve_11: f_11 - g_11 - e_6_11 - e_8_11 + e_11_6 + e_11_8 + e_11_18
   + e_11_31 + e_11_27 + e_11_17 + e_11_24 + e_11_19 - e_17_11 - e_18_11
   - e_19_11 - e_24_11 - e_27_11 - e_31_11 = 0
 disjoint_11: c_11 + s_11 <= 1
 inrack_11: - 24 c_11 + f_11 <= 0
 outrack_11: - 24 s_11 + g_11 <= 0
 preserve_12: f_12 - g_12 - e_0_12 - e_2_12 - e_10_12 + e_12_0 + e_12_2
   + e_12_10 + e_12_17 + e_12_15 + e_12_29 + e_12_31 + e_12_28 - e_15_12
   - e_17_12 - e_28_12 - e_29_12 - e_31_12 = 0
 disjoint_12: c_12 + s_12 <= 1
 inrack_12: - 24 c_12 + f_12 <= 0
 outrack_12: - 24 s_12 + g_12 <= 0
 preserve_13: f_13 - g_13 - e_3_13 - e_7_13 - e_8_13 + e_13_3 + e_13_7
   + e_13_8 + e_13_27 + e_13_14 + e_13_16 + e_13_25 + e_13_15 - e_14_13
   - e_15_13 - e_16_13 - e_25_13 - e_27_13 = 0
 disjoint_13: c_13 + s_13 <= 1
 inrack_13: - 24 c_13 + f_13 <= 0
 outrack_13: - 24 s_13 + g_13 <= 0
 preserve_14: f_14 - g_14 - e_8_14 - e_9_14 - e_13_14 + e_14_8 + e_14_9
   + e_14_13 + e_14_25 + e_14_21 + e_14_19 + e_14_16 + e_14_15 - e_15_14
   - e_16_14 - e_19_14 - e_21_14 - e_25_14 = 0
 disjoint_14: c_14 + s_14 <= 1
 inrack_14: - 24 c_14 + f_14 <= 0
 outrack_14: - 24 s_14 + g_14 <= 0
 preserve_15: f_15 - g_15 - e_6_15 - e_9_15 - e_12_15 - e_13_15 - e_14_15
   + e_15_6 + e_15_9 + e_15_12 + e_15_13 + e_15_14 + e_15_29 + e_15_16
   + e_15_22 - e_16_15 - e_22_15 - e_29_15 = 0
 disjoint_15: c_15 + s_15 <= 1
 inrack_15: - 24 c_15 + f_15 <= 0
 outrack_15: - 24 s_15 + g_15 <= 0
 preserve_16: f_16 - g_16 - e_5_16 - e_13_16 - e_14_16 - e_15_16 + e_16_5
   + e_16_13 + e_16_14 + e_16_15 + e_16_17 + e_16_28 + e_16_21 + e_16_26
   - e_17_16 - e_21_16 - e_26_16 - e_28_16 = 0
 disjoint_16: c_16 + s_16 <= 1
 inrack_16: - 24 c_16 + f_16 <= 0
 outrack_16: - 24 s_16 + g_16 <= 0
 preserve_17: f_17 - g_17 - e_0_17 - e_3_17 - e_11_17 - e_12_17 - e_16_17
   + e_17_0 + e_17_3 + e_17_11 + e_17_12 + e_17_16 + e_17_23 + e_17_27
   + e_17_25 - e_23_17 - e_25_17 - e_27_17 = 0
 disjoint_17: c_17 + s_17 <= 1
 inrack_17: - 24 c_17 + f_17 <= 0
 outrack_17: - 24 s_17 + g_17 <= 0
 preserve_18: f_18 - g_18 - e_1_18 - e_6_18 - e_11_18 + e_18_1 + e_18_6
   + e_18_11 + e_18_27 + e_18_26 + e_18_20 + e_18_21 + e_18_28 - e_20_18
   - e_21_18 - e_26_18 - e_27_18 - e_28_18 = 0
 disjoint_18: c_18 + s_18 <= 1
 inrack_18: - 24 c_18 + f_18 <= 0
 outrack_18: - 24 s_18 + g_18 <= 0
 preserve_19: f_19 - g_19 - e_0_19 - e_1_19 - e_2_19 - e_5_19 - e_8_19
   - e_11_19 - e_14_19 + e_19_0 + e_19_1 + e_19_2 + e_19_5 + e_19_8
   + e_19_11 + e_19_14 + e_19_24 - e_24_19 = 0
 disjoint_19: c_19 + s_19 <= 1
 inrack_19: - 24 c_19 + f_19 <= 0
 outrack_19: - 24 s_19 + g_19 <= 0
 preserve_20: f_20 - g_20 - e_1_20 - e_3_20 - e_4_20 - e_10_20 - e_18_20
   + e_20_1 + e_20_3 + e_20_4 + e_20_10 + e_20_18 + e_20_31 + e_20_23
   + e_20_26 - e_23_20 - e_26_20 - e_31_20 = 0
 disjoint_20: c_20 + s_20 <= 1
 inrack_20: - 24 c_20 + f_20 <= 0
 outrack_20: - 24 s_20 + g_20 <= 0
 preserve_21: f_21 - g_21 - e_0_21 - e_4_21 - e_6_21 - e_7_21 - e_14_21
   - e_16_21 - e_18_21 + e_21_0 + e_21_4 + e_21_6 + e_21_7 + e_21_14
   + e_21_16 + e_21_18 + e_21_24 - e_24_21 = 0
 disjoint_21: c_21 + s_21 <= 1
 inrack_21: - 24 c_21 + f_21 <= 0
 outrack_21: - 24 s_21 + g_21 <= 0
 preserve_22: f_22 - g_22 - e_0_22 - e_10_22 - e_15_22 + e_22_0 + e_22_10
   + e_22_15 + e_22_24 + e_22_31 + e_22_25 + e_22_23 + e_22_29 - e_23_22
   - e_24_22 - e_25_22 - e_29_22 - e_31_22 = 0
 disjoint_22: c_22 + s_22 <= 1
 inrack_22: - 24 c_22 + f_22 <= 0
 outrack_22: - 24 s_22 + g_22 <= 0
 preserve_23: f_23 - g_23 - e_2_23 - e_6_23 - e_17_23 - e_20_23 - e_22_23
   + e_23_2 + e_23_6 + e_23_17 + e_23_20 + e_23_22 + e_23_26 + e_23_30
   + e_23_27 - e_26_23 - e_27_23 - e_30_23 = 0
 disjoint_23: c_23 + s_23 <= 1
 inrack_23: - 24 c_23 + f_23 <= 0
 outrack_23: - 24 s_23 + g_23 <= 0
 preserve_24: f_24 - g_24 - e_1_24 - e_4_24 - e_11_24 - e_19_24 - e_21_24
   - e_22_24 + e_24_1 + e_24_4 + e_24_11 + e_24_19 + e_24_21 + e_24_22
   + e_24_28 + e_24_30 - e_28_24 - e_30_24 = 0
 disjoint_24: c_24 + s_24 <= 1
 inrack_24: - 24 c_24 + f_24 <= 0
 outrack_24: - 24 s_24 + g_24 <= 0
 preserve_25: f_25 - g_25 - e_3_25 - e_5_25 - e_7_25 - e_13_25 - e_14_25
   - e_17_25 - e_22_25 + e_25_3 + e_25_5 + e_25_7 + e_25_13 + e_25_14
   + e_25_17 + e_25_22 + e_25_30 - e_30_25 = 0
 disjoint_25: c_25 + s_25 <= 1
 inrack_25: - 24 c_25 + f_25 <= 0
 outrack_25: - 24 s_25 + g_25 <= 0
 preserve_26: f_26 - g_26 - e_3_26 - e_6_26 - e_16_26 - e_18_26 - e_20_26
   - e_23_26 + e_26_3 + e_26_6 + e_26_16 + e_26_18 + e_26_20 + e_26_23
   + e_26_30 + e_26_31 - e_30_26 - e_31_26 = 0
 disjoint_26: c_26 + s_26 <= 1
 inrack_26: - 24 c_26 + f_26 <= 0
 outrack_26: - 24 s_26 + g_26 <= 0
 preserve_27: f_27 - g_27 - e_2_27 - e_5_27 - e_9_27 - e_11_27 - e_13_27
   - e_17_27 - e_18_27 - e_23_27 + e_27_2 + e_27_5 + e_27_9 + e_27_11
   + e_27_13 + e_27_17 + e_27_18 + e_27_23 = 0
 disjoint_27: c_27 + s_27 <= 1
 inrack_27: - 24 c_27 + f_27 <= 0
 outrack_27: - 24 s_27 + g_27 <= 0
 preserve_28: f_28 - g_28 - e_0_28 - e_2_28 - e_6_28 - e_10_28 - e_12_28
   - e_16_28 - e_18_28 - e_24_28 + e_28_0 + e_28_2 + e_28_6 + e_28_10
   + e_28_12 + e_28_16 + e_28_18 + e_28_24 = 0
 disjoint_28: c_28 + s_28 <= 1
 inrack_28: - 24 c_28 + f_28 <= 0
 outrack_28: - 24 s_28 + g_28 <= 0
 preserve_29: f_29 - g_29 - e_1_29 - e_3_29 - e_4_29 - e_9_29 - e_10_29
   - e_12_29 - e_15_29 - e_22_29 + e_29_1 + e_29_3 + e_29_4 + e_29_9
   + e_29_10 + e_29_12 + e_29_15 + e_29_22 = 0
 disjoint_29: c_29 + s_29 <= 1
 inrack_29: - 24 c_29 + f_29 <= 0
 outrack_29: - 24 s_29 + g_29 <= 0
 preserve_30: f_30 - g_30 - e_0_30 - e_7_30 - e_8_30 - e_9_30 - e_23_30
   - e_24_30 - e_25_30 - e_26_30 + e_30_0 + e_30_7 + e_30_8 + e_30_9
   + e_30_23 + e_30_24 + e_30_25 + e_30_26 = 0
 disjoint_30: c_30 + s_30 <= 1
 inrack_30: - 24 c_30 + f_30 <= 0
 outrack_30: - 24 s_30 + g_30 <= 0
 preserve_31: f_31 - g_31 - e_8_31 - e_9_31 - e_10_31 - e_11_31 - e_12_31
   - e_20_31 - e_22_31 - e_26_31 + e_31_8 + e_31_9 + e_31_10 + e_31_11
   + e_31_12 + e_31_20 + e_31_22 + e_31_26 = 0
 disjoint_31: c_31 + s_31 <= 1
 inrack_31: - 24 c_31 + f_31 <= 0
 outrack_31: - 24 s_31 + g_31 <= 0
 nclients_cons: c_0 + c_1 + c_2 + c_3 + c_4 + c_5 + c_6 + c_7 + c_8 + c_9
   + c_10 + c_11 + c_12 + c_13 + c_14 + c_15 + c_16 + c_17 + c_18 + c_19
   + c_20 + c_21 + c_22 + c_23 + c_24 + c_25 + c_26 + c_27 + c_28 + c_29
   + c_30 + c_31 <= 11
 nservers_cons: s_0 + s_1 + s_2 + s_3 + s_4 + s_5 + s_6 + s_7 + s_8 + s_9
   + s_10 + s_11 + s_12 + s_13 + s_14 + s_15 + s_16 + s_17 + s_18 + s_19
   + s_20 + s_21 + s_22 + s_23 + s_24 + s_25 + s_26 + s_27 + s_28 + s_29
   + s_30 + s_31 <= 11
Bounds
 f_0 <= 24
 g_0 <= 24
 f_1 <= 24
 g_1 <= 24
 f_2 <= 24
 g_2 <= 24
 f_3 <= 24
 g_3 <= 24
 f_4 <= 24
 g_4 <= 24
 f_5 <= 24
 g_5 <= 24
 f_6 <= 24
 g_6 <= 24
 f_7 <= 24
 g_7 <= 24
 f_8 <= 24
 g_8 <= 24
 f_9 <= 24
 g_9 <= 24
 f_10 <= 24
 g_10 <= 24
 f_11 <= 24
 g_11 <= 24
 f_12 <= 24
 g_12 <= 24
 f_13 <= 24
 g_13 <= 24
 f_14 <= 24
 g_14 <= 24
 f_15 <= 24
 g_15 <= 24
 f_16 <= 24
 g_16 <= 24
 f_17 <= 24
 g_17 <= 24
 f_18 <= 24
 g_18 <= 24
 f_19 <= 24
 g_19 <= 24
 f_20 <= 24
 g_20 <= 24
 f_21 <= 24
 g_21 <= 24
 f_22 <= 24
 g_22 <= 24
 f_23 <= 24
 g_23 <= 24
 f_24 <= 24
 g_24 <= 24
 f_25 <= 24
 g_25 <= 24
 f_26 <= 24
 g_26 <= 24
 f_27 <= 24
 g_27 <= 24
 f_28 <= 24
 g_28 <= 24
 f_29 <= 24
 g_29 <= 24
 f_30 <= 24
 g_30 <= 24
 f_31 <= 24
 g_31 <= 24
 e_0_19 <= 1
 e_0_12 <= 1
 e_0_21 <= 1
 e_0_17 <= 1
 e_0_30 <= 1
 e_0_22 <= 1
 e_0_8 <= 1
 e_0_28 <= 1
 e_1_24 <= 1
 e_1_4 <= 1
 e_1_19 <= 1
 e_1_18 <= 1
 e_1_5 <= 1
 e_1_29 <= 1
 e_1_6 <= 1
 e_1_20 <= 1
 e_2_19 <= 1
 e_2_28 <= 1
 e_2_23 <= 1
 e_2_9 <= 1
 e_2_5 <= 1
 e_2_4 <= 1
 e_2_12 <= 1
 e_2_27 <= 1
 e_3_17 <= 1
 e_3_29 <= 1
 e_3_7 <= 1
 e_3_26 <= 1
 e_3_25 <= 1
 e_3_13 <= 1
 e_3_20 <= 1
 e_3_8 <= 1
 e_4_1 <= 1
 e_4_2 <= 1
 e_4_24 <= 1
 e_4_21 <= 1
 e_4_7 <= 1
 e_4_29 <= 1
 e_4_20 <= 1
 e_4_10 <= 1
 e_5_1 <= 1
 e_5_2 <= 1
 e_5_9 <= 1
 e_5_7 <= 1
 e_5_19 <= 1
 e_5_25 <= 1
 e_5_27 <= 1
 e_5_16 <= 1
 e_6_1 <= 1
 e_6_23 <= 1
 e_6_26 <= 1
 e_6_21 <= 1
 e_6_15 <= 1
 e_6_28 <= 1
 e_6_11 <= 1
 e_6_18 <= 1
 e_7_3 <= 1
 e_7_4 <= 1
 e_7_5 <= 1
 e_7_21 <= 1
 e_7_13 <= 1
 e_7_10 <= 1
 e_7_25 <= 1
 e_7_30 <= 1
 e_8_0 <= 1
 e_8_3 <= 1
 e_8_30 <= 1
 e_8_11 <= 1
 e_8_14 <= 1
 e_8_31 <= 1
 e_8_19 <= 1
 e_8_13 <= 1
 e_9_2 <= 1
 e_9_5 <= 1
 e_9_14 <= 1
 e_9_15 <= 1
 e_9_31 <= 1
 e_9_27 <= 1
 e_9_29 <= 1
 e_9_30 <= 1
 e_10_4 <= 1
 e_10_7 <= 1
 e_10_29 <= 1
 e_10_28 <= 1
 e_10_22 <= 1
 e_10_31 <= 1
 e_10_12 <= 1
 e_10_20 <= 1
 e_11_6 <= 1
 e_11_8 <= 1
 e_11_18 <= 1
 e_11_31 <= 1
 e_11_27 <= 1
 e_11_17 <= 1
 e_11_24 <= 1
 e_11_19 <= 1
 e_12_0 <= 1
 e_12_2 <= 1
 e_12_10 <= 1
 e_12_17 <= 1
 e_12_15 <= 1
 e_12_29 <= 1
 e_12_31 <= 1
 e_12_28 <= 1
 e_13_3 <= 1
 e_13_7 <= 1
 e_13_8 <= 1
 e_13_27 <= 1
 e_13_14 <= 1
 e_13_16 <= 1
 e_13_25 <= 1
 e_13_15 <= 1
 e_14_8 <= 1
 e_14_9 <= 1
 e_14_13 <= 1
 e_14_25 <= 1
 e_14_21 <= 1
 e_14_19 <= 1
 e_14_16 <= 1
 e_14_15 <= 1
 e_15_6 <= 1
 e_15_9 <= 1
 e_15_12 <= 1
 e_15_13 <= 1
 e_15_14 <= 1
 e_15_29 <= 1
 e_15_16 <= 1
 e_15_22 <= 1
 e_16_5 <= 1
 e_16_13 <= 1
 e_16_14 <= 1
 e_16_15 <= 1
 e_16_17 <= 1
 e_16_28 <= 1
 e_16_21 <= 1
 e_16_26 <= 1
 e_17_0 <= 1
 e_17_3 <= 1
 e_17_11 <= 1
 e_17_12 <= 1
 e_17_16 <= 1
 e_17_23 <= 1
 e_17_27 <= 1
 e_17_25 <= 1
 e_18_1 <= 1
 e_18_6 <= 1
 e_18_11 <= 1
 e_18_27 <= 1
 e_18_26 <= 1
 e_18_20 <= 1
 e_18_21 <= 1
 e_18_28 <= 1
 e_19_0 <= 1
 e_19_1 <= 1
 e_19_2 <= 1
 e_19_5 <= 1
 e_19_8 <= 1
 e_19_11 <= 1
 e_19_14 <= 1
 e_19_24 <= 1
 e_20_1 <= 1
 e_20_3 <= 1
 e_20_4 <= 1
 e_20_10 <= 1
 e_20_18 <= 1
 e_20_31 <= 1
 e_20_23 <= 1
 e_20_26 <= 1
 e_21_0 <= 1
 e_21_4 <= 1
 e_21_6 <= 1
 e_21_7 <= 1
 e_21_14 <= 1
 e_21_16 <= 1
 e_21_18 <= 1
 e_21_24 <= 1
 e_22_0 <= 1
 e_22_10 <= 1
 e_22_15 <= 1
 e_22_24 <= 1
 e_22_31 <= 1
 e_22_25 <= 1
 e_22_23 <= 1
 e_22_29 <= 1
 e_23_2 <= 1
 e_23_6 <= 1
 e_23_17 <= 1
 e_23_20 <= 1
 e_23_22 <= 1
 e_23_26 <= 1
 e_23_30 <= 1
 e_23_27 <= 1
 e_24_1 <= 1
 e_24_4 <= 1
 e_24_11 <= 1
 e_24_19 <= 1
 e_24_21 <= 1
 e_24_22 <= 1
 e_24_28 <= 1
 e_24_30 <= 1
 e_25_3 <= 1
 e_25_5 <= 1
 e_25_7 <= 1
 e_25_13 <= 1
 e_25_14 <= 1
 e_25_17 <= 1
 e_25_22 <= 1
 e_25_30 <= 1
 e_26_3 <= 1
 e_26_6 <= 1
 e_26_16 <= 1
 e_26_18 <= 1
 e_26_20 <= 1
 e_26_23 <= 1
 e_26_30 <= 1
 e_26_31 <= 1
 e_27_2 <= 1
 e_27_5 <= 1
 e_27_9 <= 1
 e_27_11 <= 1
 e_27_13 <= 1
 e_27_17 <= 1
 e_27_18 <= 1
 e_27_23 <= 1
 e_28_0 <= 1
 e_28_2 <= 1
 e_28_6 <= 1
 e_28_10 <= 1
 e_28_12 <= 1
 e_28_16 <= 1
 e_28_18 <= 1
 e_28_24 <= 1
 e_29_1 <= 1
 e_29_3 <= 1
 e_29_4 <= 1
 e_29_9 <= 1
 e_29_10 <= 1
 e_29_12 <= 1
 e_29_15 <= 1
 e_29_22 <= 1
 e_30_0 <= 1
 e_30_7 <= 1
 e_30_8 <= 1
 e_30_9 <= 1
 e_30_23 <= 1
 e_30_24 <= 1
 e_30_25 <= 1
 e_30_26 <= 1
 e_31_8 <= 1
 e_31_9 <= 1
 e_31_10 <= 1
 e_31_11 <= 1
 e_31_12 <= 1
 e_31_20 <= 1
 e_31_22 <= 1
 e_31_26 <= 1
Binaries
 c_0 s_0 c_1 s_1 c_2 s_2 c_3 s_3 c_4 s_4 c_5 s_5 c_6 s_6 c_7 s_7 c_8 s_8
 c_9 s_9 c_10 s_10 c_11 s_11 c_12 s_12 c_13 s_13 c_14 s_14 c_15 s_15 c_16
 s_16 c_17 s_17 c_18 s_18 c_19 s_19 c_20 s_20 c_21 s_21 c_22 s_22 c_23 s_23
 c_24 s_24 c_25 s_25 c_26 s_26 c_27 s_27 c_28 s_28 c_29 s_29 c_30 s_30 c_31
 s_31
End
